
Gurobi 8.1.1 (win64, Python) logging started 03/21/22 16:10:12

Academic license - for non-commercial use only

Gurobi 8.1.1 (win64, Python) logging started 03/21/22 16:15:47

Academic license - for non-commercial use only

Gurobi 8.1.1 (win64, Python) logging started 03/21/22 16:16:05

Academic license - for non-commercial use only

Gurobi 8.1.1 (win64, Python) logging started 03/21/22 16:16:41

Academic license - for non-commercial use only
